c *********************************
c * Circuit generated by BenCGen
c *
c * RippleCarryAdderSubtractor_76_76_76_OutSunT
c *
c * Ports with 1 gate(s): 2
c * Ports with 2 gate(s): 458
c * Total gates: 460
c *********************************
p cnf 612 1607
1 231 0
-1 -231 0
1 -230 0
231 -230 0
-1 -231 230 0
230 232 0
-230 -232 0
77 230 -233 0
-77 230 233 0
77 -230 233 0
-77 -230 -233 0
78 230 -234 0
-78 230 234 0
78 -230 234 0
-78 -230 -234 0
79 230 -235 0
-79 230 235 0
79 -230 235 0
-79 -230 -235 0
80 230 -236 0
-80 230 236 0
80 -230 236 0
-80 -230 -236 0
81 230 -237 0
-81 230 237 0
81 -230 237 0
-81 -230 -237 0
82 230 -238 0
-82 230 238 0
82 -230 238 0
-82 -230 -238 0
83 230 -239 0
-83 230 239 0
83 -230 239 0
-83 -230 -239 0
84 230 -240 0
-84 230 240 0
84 -230 240 0
-84 -230 -240 0
85 230 -241 0
-85 230 241 0
85 -230 241 0
-85 -230 -241 0
86 230 -242 0
-86 230 242 0
86 -230 242 0
-86 -230 -242 0
87 230 -243 0
-87 230 243 0
87 -230 243 0
-87 -230 -243 0
88 230 -244 0
-88 230 244 0
88 -230 244 0
-88 -230 -244 0
89 230 -245 0
-89 230 245 0
89 -230 245 0
-89 -230 -245 0
90 230 -246 0
-90 230 246 0
90 -230 246 0
-90 -230 -246 0
91 230 -247 0
-91 230 247 0
91 -230 247 0
-91 -230 -247 0
92 230 -248 0
-92 230 248 0
92 -230 248 0
-92 -230 -248 0
93 230 -249 0
-93 230 249 0
93 -230 249 0
-93 -230 -249 0
94 230 -250 0
-94 230 250 0
94 -230 250 0
-94 -230 -250 0
95 230 -251 0
-95 230 251 0
95 -230 251 0
-95 -230 -251 0
96 230 -252 0
-96 230 252 0
96 -230 252 0
-96 -230 -252 0
97 230 -253 0
-97 230 253 0
97 -230 253 0
-97 -230 -253 0
98 230 -254 0
-98 230 254 0
98 -230 254 0
-98 -230 -254 0
99 230 -255 0
-99 230 255 0
99 -230 255 0
-99 -230 -255 0
100 230 -256 0
-100 230 256 0
100 -230 256 0
-100 -230 -256 0
101 230 -257 0
-101 230 257 0
101 -230 257 0
-101 -230 -257 0
102 230 -258 0
-102 230 258 0
102 -230 258 0
-102 -230 -258 0
103 230 -259 0
-103 230 259 0
103 -230 259 0
-103 -230 -259 0
104 230 -260 0
-104 230 260 0
104 -230 260 0
-104 -230 -260 0
105 230 -261 0
-105 230 261 0
105 -230 261 0
-105 -230 -261 0
106 230 -262 0
-106 230 262 0
106 -230 262 0
-106 -230 -262 0
107 230 -263 0
-107 230 263 0
107 -230 263 0
-107 -230 -263 0
108 230 -264 0
-108 230 264 0
108 -230 264 0
-108 -230 -264 0
109 230 -265 0
-109 230 265 0
109 -230 265 0
-109 -230 -265 0
110 230 -266 0
-110 230 266 0
110 -230 266 0
-110 -230 -266 0
111 230 -267 0
-111 230 267 0
111 -230 267 0
-111 -230 -267 0
112 230 -268 0
-112 230 268 0
112 -230 268 0
-112 -230 -268 0
113 230 -269 0
-113 230 269 0
113 -230 269 0
-113 -230 -269 0
114 230 -270 0
-114 230 270 0
114 -230 270 0
-114 -230 -270 0
115 230 -271 0
-115 230 271 0
115 -230 271 0
-115 -230 -271 0
116 230 -272 0
-116 230 272 0
116 -230 272 0
-116 -230 -272 0
117 230 -273 0
-117 230 273 0
117 -230 273 0
-117 -230 -273 0
118 230 -274 0
-118 230 274 0
118 -230 274 0
-118 -230 -274 0
119 230 -275 0
-119 230 275 0
119 -230 275 0
-119 -230 -275 0
120 230 -276 0
-120 230 276 0
120 -230 276 0
-120 -230 -276 0
121 230 -277 0
-121 230 277 0
121 -230 277 0
-121 -230 -277 0
122 230 -278 0
-122 230 278 0
122 -230 278 0
-122 -230 -278 0
123 230 -279 0
-123 230 279 0
123 -230 279 0
-123 -230 -279 0
124 230 -280 0
-124 230 280 0
124 -230 280 0
-124 -230 -280 0
125 230 -281 0
-125 230 281 0
125 -230 281 0
-125 -230 -281 0
126 230 -282 0
-126 230 282 0
126 -230 282 0
-126 -230 -282 0
127 230 -283 0
-127 230 283 0
127 -230 283 0
-127 -230 -283 0
128 230 -284 0
-128 230 284 0
128 -230 284 0
-128 -230 -284 0
129 230 -285 0
-129 230 285 0
129 -230 285 0
-129 -230 -285 0
130 230 -286 0
-130 230 286 0
130 -230 286 0
-130 -230 -286 0
131 230 -287 0
-131 230 287 0
131 -230 287 0
-131 -230 -287 0
132 230 -288 0
-132 230 288 0
132 -230 288 0
-132 -230 -288 0
133 230 -289 0
-133 230 289 0
133 -230 289 0
-133 -230 -289 0
134 230 -290 0
-134 230 290 0
134 -230 290 0
-134 -230 -290 0
135 230 -291 0
-135 230 291 0
135 -230 291 0
-135 -230 -291 0
136 230 -292 0
-136 230 292 0
136 -230 292 0
-136 -230 -292 0
137 230 -293 0
-137 230 293 0
137 -230 293 0
-137 -230 -293 0
138 230 -294 0
-138 230 294 0
138 -230 294 0
-138 -230 -294 0
139 230 -295 0
-139 230 295 0
139 -230 295 0
-139 -230 -295 0
140 230 -296 0
-140 230 296 0
140 -230 296 0
-140 -230 -296 0
141 230 -297 0
-141 230 297 0
141 -230 297 0
-141 -230 -297 0
142 230 -298 0
-142 230 298 0
142 -230 298 0
-142 -230 -298 0
143 230 -299 0
-143 230 299 0
143 -230 299 0
-143 -230 -299 0
144 230 -300 0
-144 230 300 0
144 -230 300 0
-144 -230 -300 0
145 230 -301 0
-145 230 301 0
145 -230 301 0
-145 -230 -301 0
146 230 -302 0
-146 230 302 0
146 -230 302 0
-146 -230 -302 0
147 230 -303 0
-147 230 303 0
147 -230 303 0
-147 -230 -303 0
148 230 -304 0
-148 230 304 0
148 -230 304 0
-148 -230 -304 0
149 230 -305 0
-149 230 305 0
149 -230 305 0
-149 -230 -305 0
150 230 -306 0
-150 230 306 0
150 -230 306 0
-150 -230 -306 0
151 230 -307 0
-151 230 307 0
151 -230 307 0
-151 -230 -307 0
152 230 -308 0
-152 230 308 0
152 -230 308 0
-152 -230 -308 0
1 233 -310 0
-1 233 310 0
1 -233 310 0
-1 -233 -310 0
310 230 -153 0
-310 230 153 0
310 -230 153 0
-310 -230 -153 0
230 -311 0
310 -311 0
-230 -310 311 0
233 -312 0
1 -312 0
-233 -1 312 0
-311 309 0
-312 309 0
311 312 -309 0
2 234 -314 0
-2 234 314 0
2 -234 314 0
-2 -234 -314 0
314 309 -154 0
-314 309 154 0
314 -309 154 0
-314 -309 -154 0
309 -315 0
314 -315 0
-309 -314 315 0
234 -316 0
2 -316 0
-234 -2 316 0
-315 313 0
-316 313 0
315 316 -313 0
3 235 -318 0
-3 235 318 0
3 -235 318 0
-3 -235 -318 0
318 313 -155 0
-318 313 155 0
318 -313 155 0
-318 -313 -155 0
313 -319 0
318 -319 0
-313 -318 319 0
235 -320 0
3 -320 0
-235 -3 320 0
-319 317 0
-320 317 0
319 320 -317 0
4 236 -322 0
-4 236 322 0
4 -236 322 0
-4 -236 -322 0
322 317 -156 0
-322 317 156 0
322 -317 156 0
-322 -317 -156 0
317 -323 0
322 -323 0
-317 -322 323 0
236 -324 0
4 -324 0
-236 -4 324 0
-323 321 0
-324 321 0
323 324 -321 0
5 237 -326 0
-5 237 326 0
5 -237 326 0
-5 -237 -326 0
326 321 -157 0
-326 321 157 0
326 -321 157 0
-326 -321 -157 0
321 -327 0
326 -327 0
-321 -326 327 0
237 -328 0
5 -328 0
-237 -5 328 0
-327 325 0
-328 325 0
327 328 -325 0
6 238 -330 0
-6 238 330 0
6 -238 330 0
-6 -238 -330 0
330 325 -158 0
-330 325 158 0
330 -325 158 0
-330 -325 -158 0
325 -331 0
330 -331 0
-325 -330 331 0
238 -332 0
6 -332 0
-238 -6 332 0
-331 329 0
-332 329 0
331 332 -329 0
7 239 -334 0
-7 239 334 0
7 -239 334 0
-7 -239 -334 0
334 329 -159 0
-334 329 159 0
334 -329 159 0
-334 -329 -159 0
329 -335 0
334 -335 0
-329 -334 335 0
239 -336 0
7 -336 0
-239 -7 336 0
-335 333 0
-336 333 0
335 336 -333 0
8 240 -338 0
-8 240 338 0
8 -240 338 0
-8 -240 -338 0
338 333 -160 0
-338 333 160 0
338 -333 160 0
-338 -333 -160 0
333 -339 0
338 -339 0
-333 -338 339 0
240 -340 0
8 -340 0
-240 -8 340 0
-339 337 0
-340 337 0
339 340 -337 0
9 241 -342 0
-9 241 342 0
9 -241 342 0
-9 -241 -342 0
342 337 -161 0
-342 337 161 0
342 -337 161 0
-342 -337 -161 0
337 -343 0
342 -343 0
-337 -342 343 0
241 -344 0
9 -344 0
-241 -9 344 0
-343 341 0
-344 341 0
343 344 -341 0
10 242 -346 0
-10 242 346 0
10 -242 346 0
-10 -242 -346 0
346 341 -162 0
-346 341 162 0
346 -341 162 0
-346 -341 -162 0
341 -347 0
346 -347 0
-341 -346 347 0
242 -348 0
10 -348 0
-242 -10 348 0
-347 345 0
-348 345 0
347 348 -345 0
11 243 -350 0
-11 243 350 0
11 -243 350 0
-11 -243 -350 0
350 345 -163 0
-350 345 163 0
350 -345 163 0
-350 -345 -163 0
345 -351 0
350 -351 0
-345 -350 351 0
243 -352 0
11 -352 0
-243 -11 352 0
-351 349 0
-352 349 0
351 352 -349 0
12 244 -354 0
-12 244 354 0
12 -244 354 0
-12 -244 -354 0
354 349 -164 0
-354 349 164 0
354 -349 164 0
-354 -349 -164 0
349 -355 0
354 -355 0
-349 -354 355 0
244 -356 0
12 -356 0
-244 -12 356 0
-355 353 0
-356 353 0
355 356 -353 0
13 245 -358 0
-13 245 358 0
13 -245 358 0
-13 -245 -358 0
358 353 -165 0
-358 353 165 0
358 -353 165 0
-358 -353 -165 0
353 -359 0
358 -359 0
-353 -358 359 0
245 -360 0
13 -360 0
-245 -13 360 0
-359 357 0
-360 357 0
359 360 -357 0
14 246 -362 0
-14 246 362 0
14 -246 362 0
-14 -246 -362 0
362 357 -166 0
-362 357 166 0
362 -357 166 0
-362 -357 -166 0
357 -363 0
362 -363 0
-357 -362 363 0
246 -364 0
14 -364 0
-246 -14 364 0
-363 361 0
-364 361 0
363 364 -361 0
15 247 -366 0
-15 247 366 0
15 -247 366 0
-15 -247 -366 0
366 361 -167 0
-366 361 167 0
366 -361 167 0
-366 -361 -167 0
361 -367 0
366 -367 0
-361 -366 367 0
247 -368 0
15 -368 0
-247 -15 368 0
-367 365 0
-368 365 0
367 368 -365 0
16 248 -370 0
-16 248 370 0
16 -248 370 0
-16 -248 -370 0
370 365 -168 0
-370 365 168 0
370 -365 168 0
-370 -365 -168 0
365 -371 0
370 -371 0
-365 -370 371 0
248 -372 0
16 -372 0
-248 -16 372 0
-371 369 0
-372 369 0
371 372 -369 0
17 249 -374 0
-17 249 374 0
17 -249 374 0
-17 -249 -374 0
374 369 -169 0
-374 369 169 0
374 -369 169 0
-374 -369 -169 0
369 -375 0
374 -375 0
-369 -374 375 0
249 -376 0
17 -376 0
-249 -17 376 0
-375 373 0
-376 373 0
375 376 -373 0
18 250 -378 0
-18 250 378 0
18 -250 378 0
-18 -250 -378 0
378 373 -170 0
-378 373 170 0
378 -373 170 0
-378 -373 -170 0
373 -379 0
378 -379 0
-373 -378 379 0
250 -380 0
18 -380 0
-250 -18 380 0
-379 377 0
-380 377 0
379 380 -377 0
19 251 -382 0
-19 251 382 0
19 -251 382 0
-19 -251 -382 0
382 377 -171 0
-382 377 171 0
382 -377 171 0
-382 -377 -171 0
377 -383 0
382 -383 0
-377 -382 383 0
251 -384 0
19 -384 0
-251 -19 384 0
-383 381 0
-384 381 0
383 384 -381 0
20 252 -386 0
-20 252 386 0
20 -252 386 0
-20 -252 -386 0
386 381 -172 0
-386 381 172 0
386 -381 172 0
-386 -381 -172 0
381 -387 0
386 -387 0
-381 -386 387 0
252 -388 0
20 -388 0
-252 -20 388 0
-387 385 0
-388 385 0
387 388 -385 0
21 253 -390 0
-21 253 390 0
21 -253 390 0
-21 -253 -390 0
390 385 -173 0
-390 385 173 0
390 -385 173 0
-390 -385 -173 0
385 -391 0
390 -391 0
-385 -390 391 0
253 -392 0
21 -392 0
-253 -21 392 0
-391 389 0
-392 389 0
391 392 -389 0
22 254 -394 0
-22 254 394 0
22 -254 394 0
-22 -254 -394 0
394 389 -174 0
-394 389 174 0
394 -389 174 0
-394 -389 -174 0
389 -395 0
394 -395 0
-389 -394 395 0
254 -396 0
22 -396 0
-254 -22 396 0
-395 393 0
-396 393 0
395 396 -393 0
23 255 -398 0
-23 255 398 0
23 -255 398 0
-23 -255 -398 0
398 393 -175 0
-398 393 175 0
398 -393 175 0
-398 -393 -175 0
393 -399 0
398 -399 0
-393 -398 399 0
255 -400 0
23 -400 0
-255 -23 400 0
-399 397 0
-400 397 0
399 400 -397 0
24 256 -402 0
-24 256 402 0
24 -256 402 0
-24 -256 -402 0
402 397 -176 0
-402 397 176 0
402 -397 176 0
-402 -397 -176 0
397 -403 0
402 -403 0
-397 -402 403 0
256 -404 0
24 -404 0
-256 -24 404 0
-403 401 0
-404 401 0
403 404 -401 0
25 257 -406 0
-25 257 406 0
25 -257 406 0
-25 -257 -406 0
406 401 -177 0
-406 401 177 0
406 -401 177 0
-406 -401 -177 0
401 -407 0
406 -407 0
-401 -406 407 0
257 -408 0
25 -408 0
-257 -25 408 0
-407 405 0
-408 405 0
407 408 -405 0
26 258 -410 0
-26 258 410 0
26 -258 410 0
-26 -258 -410 0
410 405 -178 0
-410 405 178 0
410 -405 178 0
-410 -405 -178 0
405 -411 0
410 -411 0
-405 -410 411 0
258 -412 0
26 -412 0
-258 -26 412 0
-411 409 0
-412 409 0
411 412 -409 0
27 259 -414 0
-27 259 414 0
27 -259 414 0
-27 -259 -414 0
414 409 -179 0
-414 409 179 0
414 -409 179 0
-414 -409 -179 0
409 -415 0
414 -415 0
-409 -414 415 0
259 -416 0
27 -416 0
-259 -27 416 0
-415 413 0
-416 413 0
415 416 -413 0
28 260 -418 0
-28 260 418 0
28 -260 418 0
-28 -260 -418 0
418 413 -180 0
-418 413 180 0
418 -413 180 0
-418 -413 -180 0
413 -419 0
418 -419 0
-413 -418 419 0
260 -420 0
28 -420 0
-260 -28 420 0
-419 417 0
-420 417 0
419 420 -417 0
29 261 -422 0
-29 261 422 0
29 -261 422 0
-29 -261 -422 0
422 417 -181 0
-422 417 181 0
422 -417 181 0
-422 -417 -181 0
417 -423 0
422 -423 0
-417 -422 423 0
261 -424 0
29 -424 0
-261 -29 424 0
-423 421 0
-424 421 0
423 424 -421 0
30 262 -426 0
-30 262 426 0
30 -262 426 0
-30 -262 -426 0
426 421 -182 0
-426 421 182 0
426 -421 182 0
-426 -421 -182 0
421 -427 0
426 -427 0
-421 -426 427 0
262 -428 0
30 -428 0
-262 -30 428 0
-427 425 0
-428 425 0
427 428 -425 0
31 263 -430 0
-31 263 430 0
31 -263 430 0
-31 -263 -430 0
430 425 -183 0
-430 425 183 0
430 -425 183 0
-430 -425 -183 0
425 -431 0
430 -431 0
-425 -430 431 0
263 -432 0
31 -432 0
-263 -31 432 0
-431 429 0
-432 429 0
431 432 -429 0
32 264 -434 0
-32 264 434 0
32 -264 434 0
-32 -264 -434 0
434 429 -184 0
-434 429 184 0
434 -429 184 0
-434 -429 -184 0
429 -435 0
434 -435 0
-429 -434 435 0
264 -436 0
32 -436 0
-264 -32 436 0
-435 433 0
-436 433 0
435 436 -433 0
33 265 -438 0
-33 265 438 0
33 -265 438 0
-33 -265 -438 0
438 433 -185 0
-438 433 185 0
438 -433 185 0
-438 -433 -185 0
433 -439 0
438 -439 0
-433 -438 439 0
265 -440 0
33 -440 0
-265 -33 440 0
-439 437 0
-440 437 0
439 440 -437 0
34 266 -442 0
-34 266 442 0
34 -266 442 0
-34 -266 -442 0
442 437 -186 0
-442 437 186 0
442 -437 186 0
-442 -437 -186 0
437 -443 0
442 -443 0
-437 -442 443 0
266 -444 0
34 -444 0
-266 -34 444 0
-443 441 0
-444 441 0
443 444 -441 0
35 267 -446 0
-35 267 446 0
35 -267 446 0
-35 -267 -446 0
446 441 -187 0
-446 441 187 0
446 -441 187 0
-446 -441 -187 0
441 -447 0
446 -447 0
-441 -446 447 0
267 -448 0
35 -448 0
-267 -35 448 0
-447 445 0
-448 445 0
447 448 -445 0
36 268 -450 0
-36 268 450 0
36 -268 450 0
-36 -268 -450 0
450 445 -188 0
-450 445 188 0
450 -445 188 0
-450 -445 -188 0
445 -451 0
450 -451 0
-445 -450 451 0
268 -452 0
36 -452 0
-268 -36 452 0
-451 449 0
-452 449 0
451 452 -449 0
37 269 -454 0
-37 269 454 0
37 -269 454 0
-37 -269 -454 0
454 449 -189 0
-454 449 189 0
454 -449 189 0
-454 -449 -189 0
449 -455 0
454 -455 0
-449 -454 455 0
269 -456 0
37 -456 0
-269 -37 456 0
-455 453 0
-456 453 0
455 456 -453 0
38 270 -458 0
-38 270 458 0
38 -270 458 0
-38 -270 -458 0
458 453 -190 0
-458 453 190 0
458 -453 190 0
-458 -453 -190 0
453 -459 0
458 -459 0
-453 -458 459 0
270 -460 0
38 -460 0
-270 -38 460 0
-459 457 0
-460 457 0
459 460 -457 0
39 271 -462 0
-39 271 462 0
39 -271 462 0
-39 -271 -462 0
462 457 -191 0
-462 457 191 0
462 -457 191 0
-462 -457 -191 0
457 -463 0
462 -463 0
-457 -462 463 0
271 -464 0
39 -464 0
-271 -39 464 0
-463 461 0
-464 461 0
463 464 -461 0
40 272 -466 0
-40 272 466 0
40 -272 466 0
-40 -272 -466 0
466 461 -192 0
-466 461 192 0
466 -461 192 0
-466 -461 -192 0
461 -467 0
466 -467 0
-461 -466 467 0
272 -468 0
40 -468 0
-272 -40 468 0
-467 465 0
-468 465 0
467 468 -465 0
41 273 -470 0
-41 273 470 0
41 -273 470 0
-41 -273 -470 0
470 465 -193 0
-470 465 193 0
470 -465 193 0
-470 -465 -193 0
465 -471 0
470 -471 0
-465 -470 471 0
273 -472 0
41 -472 0
-273 -41 472 0
-471 469 0
-472 469 0
471 472 -469 0
42 274 -474 0
-42 274 474 0
42 -274 474 0
-42 -274 -474 0
474 469 -194 0
-474 469 194 0
474 -469 194 0
-474 -469 -194 0
469 -475 0
474 -475 0
-469 -474 475 0
274 -476 0
42 -476 0
-274 -42 476 0
-475 473 0
-476 473 0
475 476 -473 0
43 275 -478 0
-43 275 478 0
43 -275 478 0
-43 -275 -478 0
478 473 -195 0
-478 473 195 0
478 -473 195 0
-478 -473 -195 0
473 -479 0
478 -479 0
-473 -478 479 0
275 -480 0
43 -480 0
-275 -43 480 0
-479 477 0
-480 477 0
479 480 -477 0
44 276 -482 0
-44 276 482 0
44 -276 482 0
-44 -276 -482 0
482 477 -196 0
-482 477 196 0
482 -477 196 0
-482 -477 -196 0
477 -483 0
482 -483 0
-477 -482 483 0
276 -484 0
44 -484 0
-276 -44 484 0
-483 481 0
-484 481 0
483 484 -481 0
45 277 -486 0
-45 277 486 0
45 -277 486 0
-45 -277 -486 0
486 481 -197 0
-486 481 197 0
486 -481 197 0
-486 -481 -197 0
481 -487 0
486 -487 0
-481 -486 487 0
277 -488 0
45 -488 0
-277 -45 488 0
-487 485 0
-488 485 0
487 488 -485 0
46 278 -490 0
-46 278 490 0
46 -278 490 0
-46 -278 -490 0
490 485 -198 0
-490 485 198 0
490 -485 198 0
-490 -485 -198 0
485 -491 0
490 -491 0
-485 -490 491 0
278 -492 0
46 -492 0
-278 -46 492 0
-491 489 0
-492 489 0
491 492 -489 0
47 279 -494 0
-47 279 494 0
47 -279 494 0
-47 -279 -494 0
494 489 -199 0
-494 489 199 0
494 -489 199 0
-494 -489 -199 0
489 -495 0
494 -495 0
-489 -494 495 0
279 -496 0
47 -496 0
-279 -47 496 0
-495 493 0
-496 493 0
495 496 -493 0
48 280 -498 0
-48 280 498 0
48 -280 498 0
-48 -280 -498 0
498 493 -200 0
-498 493 200 0
498 -493 200 0
-498 -493 -200 0
493 -499 0
498 -499 0
-493 -498 499 0
280 -500 0
48 -500 0
-280 -48 500 0
-499 497 0
-500 497 0
499 500 -497 0
49 281 -502 0
-49 281 502 0
49 -281 502 0
-49 -281 -502 0
502 497 -201 0
-502 497 201 0
502 -497 201 0
-502 -497 -201 0
497 -503 0
502 -503 0
-497 -502 503 0
281 -504 0
49 -504 0
-281 -49 504 0
-503 501 0
-504 501 0
503 504 -501 0
50 282 -506 0
-50 282 506 0
50 -282 506 0
-50 -282 -506 0
506 501 -202 0
-506 501 202 0
506 -501 202 0
-506 -501 -202 0
501 -507 0
506 -507 0
-501 -506 507 0
282 -508 0
50 -508 0
-282 -50 508 0
-507 505 0
-508 505 0
507 508 -505 0
51 283 -510 0
-51 283 510 0
51 -283 510 0
-51 -283 -510 0
510 505 -203 0
-510 505 203 0
510 -505 203 0
-510 -505 -203 0
505 -511 0
510 -511 0
-505 -510 511 0
283 -512 0
51 -512 0
-283 -51 512 0
-511 509 0
-512 509 0
511 512 -509 0
52 284 -514 0
-52 284 514 0
52 -284 514 0
-52 -284 -514 0
514 509 -204 0
-514 509 204 0
514 -509 204 0
-514 -509 -204 0
509 -515 0
514 -515 0
-509 -514 515 0
284 -516 0
52 -516 0
-284 -52 516 0
-515 513 0
-516 513 0
515 516 -513 0
53 285 -518 0
-53 285 518 0
53 -285 518 0
-53 -285 -518 0
518 513 -205 0
-518 513 205 0
518 -513 205 0
-518 -513 -205 0
513 -519 0
518 -519 0
-513 -518 519 0
285 -520 0
53 -520 0
-285 -53 520 0
-519 517 0
-520 517 0
519 520 -517 0
54 286 -522 0
-54 286 522 0
54 -286 522 0
-54 -286 -522 0
522 517 -206 0
-522 517 206 0
522 -517 206 0
-522 -517 -206 0
517 -523 0
522 -523 0
-517 -522 523 0
286 -524 0
54 -524 0
-286 -54 524 0
-523 521 0
-524 521 0
523 524 -521 0
55 287 -526 0
-55 287 526 0
55 -287 526 0
-55 -287 -526 0
526 521 -207 0
-526 521 207 0
526 -521 207 0
-526 -521 -207 0
521 -527 0
526 -527 0
-521 -526 527 0
287 -528 0
55 -528 0
-287 -55 528 0
-527 525 0
-528 525 0
527 528 -525 0
56 288 -530 0
-56 288 530 0
56 -288 530 0
-56 -288 -530 0
530 525 -208 0
-530 525 208 0
530 -525 208 0
-530 -525 -208 0
525 -531 0
530 -531 0
-525 -530 531 0
288 -532 0
56 -532 0
-288 -56 532 0
-531 529 0
-532 529 0
531 532 -529 0
57 289 -534 0
-57 289 534 0
57 -289 534 0
-57 -289 -534 0
534 529 -209 0
-534 529 209 0
534 -529 209 0
-534 -529 -209 0
529 -535 0
534 -535 0
-529 -534 535 0
289 -536 0
57 -536 0
-289 -57 536 0
-535 533 0
-536 533 0
535 536 -533 0
58 290 -538 0
-58 290 538 0
58 -290 538 0
-58 -290 -538 0
538 533 -210 0
-538 533 210 0
538 -533 210 0
-538 -533 -210 0
533 -539 0
538 -539 0
-533 -538 539 0
290 -540 0
58 -540 0
-290 -58 540 0
-539 537 0
-540 537 0
539 540 -537 0
59 291 -542 0
-59 291 542 0
59 -291 542 0
-59 -291 -542 0
542 537 -211 0
-542 537 211 0
542 -537 211 0
-542 -537 -211 0
537 -543 0
542 -543 0
-537 -542 543 0
291 -544 0
59 -544 0
-291 -59 544 0
-543 541 0
-544 541 0
543 544 -541 0
60 292 -546 0
-60 292 546 0
60 -292 546 0
-60 -292 -546 0
546 541 -212 0
-546 541 212 0
546 -541 212 0
-546 -541 -212 0
541 -547 0
546 -547 0
-541 -546 547 0
292 -548 0
60 -548 0
-292 -60 548 0
-547 545 0
-548 545 0
547 548 -545 0
61 293 -550 0
-61 293 550 0
61 -293 550 0
-61 -293 -550 0
550 545 -213 0
-550 545 213 0
550 -545 213 0
-550 -545 -213 0
545 -551 0
550 -551 0
-545 -550 551 0
293 -552 0
61 -552 0
-293 -61 552 0
-551 549 0
-552 549 0
551 552 -549 0
62 294 -554 0
-62 294 554 0
62 -294 554 0
-62 -294 -554 0
554 549 -214 0
-554 549 214 0
554 -549 214 0
-554 -549 -214 0
549 -555 0
554 -555 0
-549 -554 555 0
294 -556 0
62 -556 0
-294 -62 556 0
-555 553 0
-556 553 0
555 556 -553 0
63 295 -558 0
-63 295 558 0
63 -295 558 0
-63 -295 -558 0
558 553 -215 0
-558 553 215 0
558 -553 215 0
-558 -553 -215 0
553 -559 0
558 -559 0
-553 -558 559 0
295 -560 0
63 -560 0
-295 -63 560 0
-559 557 0
-560 557 0
559 560 -557 0
64 296 -562 0
-64 296 562 0
64 -296 562 0
-64 -296 -562 0
562 557 -216 0
-562 557 216 0
562 -557 216 0
-562 -557 -216 0
557 -563 0
562 -563 0
-557 -562 563 0
296 -564 0
64 -564 0
-296 -64 564 0
-563 561 0
-564 561 0
563 564 -561 0
65 297 -566 0
-65 297 566 0
65 -297 566 0
-65 -297 -566 0
566 561 -217 0
-566 561 217 0
566 -561 217 0
-566 -561 -217 0
561 -567 0
566 -567 0
-561 -566 567 0
297 -568 0
65 -568 0
-297 -65 568 0
-567 565 0
-568 565 0
567 568 -565 0
66 298 -570 0
-66 298 570 0
66 -298 570 0
-66 -298 -570 0
570 565 -218 0
-570 565 218 0
570 -565 218 0
-570 -565 -218 0
565 -571 0
570 -571 0
-565 -570 571 0
298 -572 0
66 -572 0
-298 -66 572 0
-571 569 0
-572 569 0
571 572 -569 0
67 299 -574 0
-67 299 574 0
67 -299 574 0
-67 -299 -574 0
574 569 -219 0
-574 569 219 0
574 -569 219 0
-574 -569 -219 0
569 -575 0
574 -575 0
-569 -574 575 0
299 -576 0
67 -576 0
-299 -67 576 0
-575 573 0
-576 573 0
575 576 -573 0
68 300 -578 0
-68 300 578 0
68 -300 578 0
-68 -300 -578 0
578 573 -220 0
-578 573 220 0
578 -573 220 0
-578 -573 -220 0
573 -579 0
578 -579 0
-573 -578 579 0
300 -580 0
68 -580 0
-300 -68 580 0
-579 577 0
-580 577 0
579 580 -577 0
69 301 -582 0
-69 301 582 0
69 -301 582 0
-69 -301 -582 0
582 577 -221 0
-582 577 221 0
582 -577 221 0
-582 -577 -221 0
577 -583 0
582 -583 0
-577 -582 583 0
301 -584 0
69 -584 0
-301 -69 584 0
-583 581 0
-584 581 0
583 584 -581 0
70 302 -586 0
-70 302 586 0
70 -302 586 0
-70 -302 -586 0
586 581 -222 0
-586 581 222 0
586 -581 222 0
-586 -581 -222 0
581 -587 0
586 -587 0
-581 -586 587 0
302 -588 0
70 -588 0
-302 -70 588 0
-587 585 0
-588 585 0
587 588 -585 0
71 303 -590 0
-71 303 590 0
71 -303 590 0
-71 -303 -590 0
590 585 -223 0
-590 585 223 0
590 -585 223 0
-590 -585 -223 0
585 -591 0
590 -591 0
-585 -590 591 0
303 -592 0
71 -592 0
-303 -71 592 0
-591 589 0
-592 589 0
591 592 -589 0
72 304 -594 0
-72 304 594 0
72 -304 594 0
-72 -304 -594 0
594 589 -224 0
-594 589 224 0
594 -589 224 0
-594 -589 -224 0
589 -595 0
594 -595 0
-589 -594 595 0
304 -596 0
72 -596 0
-304 -72 596 0
-595 593 0
-596 593 0
595 596 -593 0
73 305 -598 0
-73 305 598 0
73 -305 598 0
-73 -305 -598 0
598 593 -225 0
-598 593 225 0
598 -593 225 0
-598 -593 -225 0
593 -599 0
598 -599 0
-593 -598 599 0
305 -600 0
73 -600 0
-305 -73 600 0
-599 597 0
-600 597 0
599 600 -597 0
74 306 -602 0
-74 306 602 0
74 -306 602 0
-74 -306 -602 0
602 597 -226 0
-602 597 226 0
602 -597 226 0
-602 -597 -226 0
597 -603 0
602 -603 0
-597 -602 603 0
306 -604 0
74 -604 0
-306 -74 604 0
-603 601 0
-604 601 0
603 604 -601 0
75 307 -606 0
-75 307 606 0
75 -307 606 0
-75 -307 -606 0
606 601 -227 0
-606 601 227 0
606 -601 227 0
-606 -601 -227 0
601 -607 0
606 -607 0
-601 -606 607 0
307 -608 0
75 -608 0
-307 -75 608 0
-607 605 0
-608 605 0
607 608 -605 0
76 308 -610 0
-76 308 610 0
76 -308 610 0
-76 -308 -610 0
610 605 -228 0
-610 605 228 0
610 -605 228 0
-610 -605 -228 0
605 -611 0
610 -611 0
-605 -610 611 0
308 -612 0
76 -612 0
-308 -76 612 0
-611 609 0
-612 609 0
611 612 -609 0
609 230 -229 0
-609 230 229 0
609 -230 229 0
-609 -230 -229 0
